presolving:
(round 1, fast)       724 del vars, 0 del conss, 0 add conss, 0 chg bounds, 0 chg sides, 0 chg coeffs, 0 upgd conss, 0 impls, 263174 clqs
(round 2, exhaustive) 724 del vars, 0 del conss, 0 add conss, 0 chg bounds, 0 chg sides, 0 chg coeffs, 263174 upgd conss, 0 impls, 263174 clqs
   (17.0s) probing: 51/523452 (0.0%) - 0 fixings, 0 aggregations, 0 implications, 0 bound changes
   (17.0s) probing aborted: 50/50 successive totally useless probings
   Deactivated symmetry handling methods, since SCIP was built without symmetry detector (SYM=none).
presolving (3 rounds: 3 fast, 2 medium, 2 exhaustive):
 724 deleted vars, 0 deleted constraints, 0 added constraints, 0 tightened bounds, 0 added holes, 0 changed sides, 0 changed coefficients
 0 implications, 263174 cliques
presolved problem has 523452 variables (523452 bin, 0 int, 0 impl, 0 cont) and 263174 constraints
 263174 constraints of type <setppc>
Presolving Time: 17.00

 time | node  | left  |LP iter|LP it/n|mem/heur|mdpt |vars |cons |rows |cuts |sepa|confs|strbr|  dualbound   | primalbound  |  gap   | compl. 
p25.0s|     1 |     0 |     0 |     - |  clique|   0 | 523k| 263k|1448 |   0 |  0 |   0 |   0 | 0.000000e+00 | 5.415073e+04 |    Inf | unknown
 50.0s|     1 |     0 |  1250 |     - |  2865M |   0 | 523k| 263k|1448 |   0 |  0 |  13 |   0 | 3.581960e+04 | 5.415073e+04 |  51.18%| unknown
 51.0s|     1 |     0 |  2021 |     - |  2866M |   0 | 523k| 263k|1736 | 288 |  1 |  13 |   0 | 4.025517e+04 | 5.415073e+04 |  34.52%| unknown
 62.0s|     1 |     0 |  2156 |     - |  2970M |   0 | 523k| 263k|1775 | 327 |  2 |  13 |   0 | 4.050251e+04 | 5.415073e+04 |  33.70%| unknown
 72.0s|     1 |     0 |  2159 |     - |  3011M |   0 | 523k| 263k|1777 | 329 |  3 |  13 |   0 | 4.050704e+04 | 5.415073e+04 |  33.68%| unknown
 82.0s|     1 |     0 |  2166 |     - |  3011M |   0 | 523k| 263k|1783 | 335 |  4 |  13 |   0 | 4.050704e+04 | 5.415073e+04 |  33.68%| unknown
 93.0s|     1 |     0 |  2208 |     - |  3041M |   0 | 523k| 263k|1802 | 354 |  5 |  13 |   0 | 4.053016e+04 | 5.415073e+04 |  33.61%| unknown
  104s|     1 |     0 |  2233 |     - |  3067M |   0 | 523k| 263k|1817 | 369 |  6 |  13 |   0 | 4.053592e+04 | 5.415073e+04 |  33.59%| unknown
  115s|     1 |     0 |  2279 |     - |  3076M |   0 | 523k| 263k|1833 | 385 |  7 |  13 |   0 | 4.059786e+04 | 5.415073e+04 |  33.38%| unknown
  128s|     1 |     0 |  2321 |     - |  3124M |   0 | 523k| 263k|1865 | 417 |  8 |  13 |   0 | 4.065058e+04 | 5.415073e+04 |  33.21%| unknown
  138s|     1 |     0 |  2341 |     - |  3141M |   0 | 523k| 263k|1877 | 429 |  9 |  13 |   0 | 4.066043e+04 | 5.415073e+04 |  33.18%| unknown
  149s|     1 |     0 |  2380 |     - |  3168M |   0 | 523k| 263k|1904 | 456 | 10 |  13 |   0 | 4.070489e+04 | 5.415073e+04 |  33.03%| unknown
  162s|     1 |     0 |  2397 |     - |  3214M |   0 | 523k| 263k|1822 | 464 | 11 |  13 |   0 | 4.072039e+04 | 5.415073e+04 |  32.98%| unknown
  168s|     1 |     0 |  2452 |     - |  3224M |   0 | 523k| 263k|1847 | 489 | 12 |  13 |   0 | 4.075626e+04 | 5.415073e+04 |  32.86%| unknown
  172s|     1 |     0 |  2486 |     - |  3241M |   0 | 523k| 263k|1864 | 506 | 13 |  13 |   0 | 4.077133e+04 | 5.415073e+04 |  32.82%| unknown
 time | node  | left  |LP iter|LP it/n|mem/heur|mdpt |vars |cons |rows |cuts |sepa|confs|strbr|  dualbound   | primalbound  |  gap   | compl. 
  175s|     1 |     0 |  2549 |     - |  3247M |   0 | 523k| 263k|1879 | 521 | 14 |  13 |   0 | 4.078250e+04 | 5.415073e+04 |  32.78%| unknown
  179s|     1 |     0 |  2574 |     - |  3253M |   0 | 523k| 263k|1883 | 525 | 15 |  13 |   0 | 4.078388e+04 | 5.415073e+04 |  32.77%| unknown
  182s|     1 |     0 |  2579 |     - |  3285M |   0 | 523k| 263k|1885 | 527 | 16 |  13 |   0 | 4.078388e+04 | 5.415073e+04 |  32.77%| unknown
  189s|     1 |     0 |  2580 |     - |  3295M |   0 | 523k| 263k|1861 | 528 | 17 |  13 |   0 | 4.078606e+04 | 5.415073e+04 |  32.77%| unknown
  194s|     1 |     0 |  2581 |     - |  3318M |   0 | 523k| 263k|1862 | 529 | 18 |  13 |   0 | 4.078606e+04 | 5.415073e+04 |  32.77%| unknown
  197s|     1 |     0 |  2582 |     - |  3318M |   0 | 523k| 263k|1863 | 530 | 19 |  13 |   0 | 4.078606e+04 | 5.415073e+04 |  32.77%| unknown
  202s|     1 |     0 |  2590 |     - |  3322M |   0 | 523k| 263k|1864 | 531 | 20 |  13 |   0 | 4.079068e+04 | 5.415073e+04 |  32.75%| unknown
  206s|     1 |     0 |  2597 |     - |  3323M |   0 | 523k| 263k|1868 | 535 | 21 |  13 |   0 | 4.079993e+04 | 5.415073e+04 |  32.72%| unknown
  208s|     1 |     0 |  2604 |     - |  3324M |   0 | 523k| 263k|1871 | 538 | 22 |  13 |   0 | 4.080039e+04 | 5.415073e+04 |  32.72%| unknown
  213s|     1 |     0 |  2612 |     - |  3324M |   0 | 523k| 263k|1773 | 539 | 23 |  13 |   0 | 4.080170e+04 | 5.415073e+04 |  32.72%| unknown
  215s|     1 |     0 |  2625 |     - |  3325M |   0 | 523k| 263k|1776 | 542 | 24 |  13 |   0 | 4.080214e+04 | 5.415073e+04 |  32.72%| unknown
  321s|     1 |     2 |  9667 |     - |  3373M |   0 | 523k| 263k|1776 | 542 | 26 |  13 |  21 | 4.080424e+04 | 5.415073e+04 |  32.71%| unknown
*1036s|    27 |    26 | 10712 | 311.0 |strongbr|  21 | 523k| 263k|1769 | 573 |  1 |  13 | 682 | 4.080788e+04 | 4.110359e+04 |   0.72%| unknown
*1112s|    30 |    15 | 10924 | 286.2 |strongbr|  21 | 523k| 263k|1795 | 614 |  4 | 177k| 738 | 4.080788e+04 | 4.094662e+04 |   0.34%| unknown
*1120s|    30 |    15 | 10934 | 286.5 |strongbr|  21 | 523k| 263k|1798 | 617 |  7 | 177k| 743 | 4.080788e+04 | 4.094033e+04 |   0.32%| unknown
 time | node  | left  |LP iter|LP it/n|mem/heur|mdpt |vars |cons |rows |cuts |sepa|confs|strbr|  dualbound   | primalbound  |  gap   | compl. 
*1131s|    31 |    14 | 11022 | 279.9 |    LP  |  21 | 523k| 263k|1774 | 622 |  4 | 177k| 749 | 4.080788e+04 | 4.093446e+04 |   0.31%| unknown
*1237s|    41 |    12 | 11348 | 218.1 |strongbr|  21 | 523k| 263k|1763 | 645 |  2 | 177k| 849 | 4.080788e+04 | 4.091813e+04 |   0.27%|   2.25%
*2200s|    89 |    22 | 13295 | 121.2 |strongbr|  21 | 523k| 263k|1775 | 719 |  1 | 178k|1876 | 4.080813e+04 | 4.091199e+04 |   0.25%|   3.48%
*2201s|    89 |    22 | 13295 | 121.2 |strongbr|  21 | 523k| 263k|1775 | 719 |  1 | 178k|1877 | 4.080813e+04 | 4.090481e+04 |   0.24%|   3.48%
 2376s|   100 |    31 | 13629 | 111.2 |  3728M |  21 | 523k| 263k|1767 | 731 |  1 | 178k|2057 | 4.080984e+04 | 4.090481e+04 |   0.23%|   4.11%
*2436s|   102 |    31 | 13711 | 109.8 |strongbr|  21 | 523k| 264k|1768 | 732 | 10 | 178k|2109 | 4.080984e+04 | 4.090319e+04 |   0.23%|   4.11%
*2532s|   107 |    28 | 13950 | 106.8 |strongbr|  21 | 523k| 264k|1768 | 733 |  2 | 178k|2194 | 4.080984e+04 | 4.089626e+04 |   0.21%|   4.42%
*2703s|   117 |    26 | 14400 | 101.5 |strongbr|  21 | 523k| 264k|1768 | 740 |  9 | 178k|2325 | 4.080984e+04 | 4.089398e+04 |   0.21%|   5.97%
*3063s|   132 |    25 | 15138 |  95.5 |strongbr|  21 | 523k| 264k|1768 | 763 |  4 | 178k|2617 | 4.080984e+04 | 4.088787e+04 |   0.19%|   6.98%
*3312s|   146 |    28 | 15599 |  89.5 |strongbr|  21 | 523k| 264k|1762 | 769 |  1 | 179k|2816 | 4.080984e+04 | 4.088511e+04 |   0.18%|   7.60%
*3319s|   146 |    28 | 15606 |  89.5 |strongbr|  21 | 523k| 264k|1762 | 769 |  3 | 179k|2823 | 4.080984e+04 | 4.087817e+04 |   0.17%|   7.60%
*3668s|   163 |    25 | 16419 |  85.1 |strongbr|  21 | 523k| 264k|1763 | 788 |  2 | 179k|3123 | 4.080984e+04 | 4.086925e+04 |   0.15%|   9.40%
 4331s|   200 |    28 | 18235 |  78.4 |  3651M |  21 | 523k| 264k|1766 | 839 |  0 | 179k|3704 | 4.081850e+04 | 4.086925e+04 |   0.12%|  17.75%
 5121s|   300 |    30 | 22220 |  65.5 |  3694M |  21 | 523k| 265k|1760 | 992 |  1 | 179k|4273 | 4.082055e+04 | 4.086925e+04 |   0.12%|  25.32%
*5384s|   366 |    32 | 24229 |  59.2 |    LP  |  21 | 523k| 265k|1777 |1074 |  2 | 180k|4417 | 4.082055e+04 | 4.086500e+04 |   0.11%|  25.97%
 time | node  | left  |LP iter|LP it/n|mem/heur|mdpt |vars |cons |rows |cuts |sepa|confs|strbr|  dualbound   | primalbound  |  gap   | compl. 
*5385s|   367 |    31 | 24232 |  59.0 |    LP  |  21 | 523k| 265k|1777 |1074 |  2 | 180k|4417 | 4.082055e+04 | 4.086465e+04 |   0.11%|  25.97%
 5468s|   400 |    30 | 25419 |  57.1 |  3712M |  21 | 523k| 264k|1760 |1092 |  1 | 180k|4462 | 4.082076e+04 | 4.086465e+04 |   0.11%|  29.52%
*5682s|   464 |    34 | 27674 |  54.1 |strongbr|  21 | 523k| 264k|1770 |1169 |  2 | 180k|4605 | 4.082239e+04 | 4.086344e+04 |   0.10%|  34.05%
 5788s|   500 |    38 | 29138 |  53.1 |  3721M |  21 | 523k| 264k|1768 |1220 |  2 | 180k|4653 | 4.082311e+04 | 4.086344e+04 |   0.10%|  36.27%
 6094s|   600 |    42 | 32518 |  49.9 |  3723M |  21 | 523k| 264k|1760 |1389 |  2 | 180k|4809 | 4.082350e+04 | 4.086344e+04 |   0.10%|  38.51%
 6295s|   700 |    38 | 35850 |  47.5 |  3730M |  21 | 523k| 263k|1762 |1542 |  0 | 180k|4873 | 4.082353e+04 | 4.086344e+04 |   0.10%|  45.06%
 6545s|   800 |    35 | 39524 |  46.2 |  3733M |  21 | 523k| 263k|1763 |1737 |  3 | 180k|4962 | 4.082621e+04 | 4.086344e+04 |   0.09%|  52.53%
 6810s|   900 |    27 | 43677 |  45.7 |  3737M |  21 | 523k| 263k|1769 |1875 |  3 | 181k|5072 | 4.082706e+04 | 4.086344e+04 |   0.09%|  61.72%
 6984s|  1000 |    20 | 46999 |  44.4 |  3737M |  21 | 523k| 263k|1767 |1973 |  2 | 181k|5109 | 4.082827e+04 | 4.086344e+04 |   0.09%|  74.10%
 7181s|  1100 |    10 | 50452 |  43.5 |  3739M |  21 | 523k| 263k|1766 |2071 |  1 | 181k|5165 | 4.082917e+04 | 4.086344e+04 |   0.08%|  86.03%

SCIP Status        : problem is solved [optimal solution found]
Solving Time (sec) : 7340.00
Solving Nodes      : 1190
Primal Bound       : +4.08634400035561e+04 (18 solutions)
Dual Bound         : +4.08634400035561e+04
Gap                : 0.00 %
Trying to solve problem with DFJ2 version 2.0 Method...
7340.0
Route:  [[0, 12], [1, 723], [2, 3], [3, 712], [4, 704], [5, 717], [6, 709], [7, 700], [8, 9], [9, 15], [10, 2], [11, 0], [12, 11], [13, 17], [14, 5], [15, 18], [16, 14], [17, 98], [18, 19], [19, 97], [20, 23], [21, 695], [22, 94], [23, 24], [24, 20], [25, 26], [26, 90], [27, 22], [28, 43], [29, 46], [30, 29], [31, 45], [32, 685], [33, 64], [34, 678], [35, 32], [36, 78], [37, 34], [38, 28], [39, 47], [40, 79], [41, 48], [42, 689], [43, 36], [44, 38], [45, 42], [46, 37], [47, 80], [48, 40], [49, 107], [50, 58], [51, 111], [52, 54], [53, 71], [54, 53], [55, 56], [56, 57], [57, 60], [58, 59], [59, 51], [60, 104], [61, 55], [62, 69], [63, 82], [64, 66], [65, 49], [66, 81], [67, 108], [68, 67], [69, 103], [70, 115], [71, 52], [72, 110], [73, 72], [74, 76], [75, 112], [76, 75], [77, 106], [78, 671], [79, 670], [80, 684], [81, 30], [82, 84], [83, 62], [84, 85], [85, 83], [86, 101], [87, 88], [88, 102], [89, 100], [90, 91], [91, 39], [92, 687], [93, 690], [94, 25], [95, 686], [96, 694], [97, 86], [98, 13], [99, 89], [100, 99], [101, 87], [102, 96], [103, 105], [104, 61], [105, 70], [106, 116], [107, 50], [108, 65], [109, 74], [110, 73], [111, 68], [112, 113], [113, 109], [114, 63], [115, 114], [116, 77], [117, 649], [118, 648], [119, 640], [120, 119], [121, 170], [122, 167], [123, 124], [124, 169], [125, 166], [126, 132], [127, 130], [128, 129], [129, 602], [130, 278], [131, 126], [132, 127], [133, 147], [134, 135], [135, 149], [136, 137], [137, 140], [138, 600], [139, 138], [140, 151], [141, 172], [142, 162], [143, 144], [144, 183], [145, 171], [146, 134], [147, 136], [148, 145], [149, 150], [150, 120], [151, 152], [152, 158], [153, 157], [154, 163], [155, 609], [156, 635], [157, 159], [158, 637], [159, 608], [160, 153], [161, 139], [162, 160], [163, 142], [164, 165], [165, 141], [166, 122], [167, 148], [168, 123], [169, 168], [170, 131], [171, 125], [172, 143], [173, 175], [174, 592], [175, 177], [176, 173], [177, 182], [178, 176], [179, 178], [180, 181], [181, 179], [182, 180], [183, 174], [184, 185], [185, 186], [186, 550], [187, 555], [188, 543], [189, 544], [190, 537], [191, 246], [192, 193], [193, 194], [194, 196], [195, 256], [196, 197], [197, 526], [198, 195], [199, 205], [200, 198], [201, 202], [202, 203], [203, 201], [204, 235], [205, 241], [206, 204], [207, 220], [208, 221], [209, 248], [210, 521], [211, 505], [212, 508], [213, 212], [214, 217], [215, 222], [216, 214], [217, 216], [218, 245], [219, 512], [220, 513], [221, 520], [222, 224], [223, 215], [224, 515], [225, 223], [226, 242], [227, 219], [228, 229], [229, 321], [230, 228], [231, 320], [232, 329], [233, 232], [234, 239], [235, 200], [236, 199], [237, 236], [238, 237], [239, 238], [240, 226], [241, 234], [242, 240], [243, 218], [244, 254], [245, 244], [246, 255], [247, 511], [248, 251], [249, 250], [250, 210], [251, 510], [252, 249], [253, 206], [254, 243], [255, 191], [256, 189], [257, 188], [258, 271], [259, 260], [260, 524], [261, 262], [262, 263], [263, 259], [264, 522], [265, 268], [266, 192], [267, 266], [268, 523], [269, 190], [270, 267], [271, 277], [272, 274], [273, 258], [274, 270], [275, 280], [276, 272], [277, 273], [278, 281], [279, 275], [280, 279], [281, 276], [282, 283], [283, 128], [284, 289], [285, 290], [286, 284], [287, 288], [288, 301], [289, 286], [290, 291], [291, 293], [292, 407], [293, 403], [294, 298], [295, 486], [296, 487], [297, 294], [298, 484], [299, 297], [300, 299], [301, 300], [302, 317], [303, 355], [304, 316], [305, 307], [306, 308], [307, 304], [308, 401], [309, 305], [310, 356], [311, 312], [312, 310], [313, 362], [314, 309], [315, 361], [316, 302], [317, 318], [318, 306], [319, 231], [320, 319], [321, 330], [322, 331], [323, 324], [324, 322], [325, 230], [326, 327], [327, 333], [328, 332], [329, 233], [330, 227], [331, 328], [332, 358], [333, 326], [334, 335], [335, 336], [336, 334], [337, 347], [338, 337], [339, 350], [340, 348], [341, 340], [342, 343], [343, 344], [344, 497], [345, 342], [346, 496], [347, 323], [348, 351], [349, 345], [350, 349], [351, 346], [352, 503], [353, 502], [354, 325], [355, 354], [356, 303], [357, 315], [358, 482], [359, 363], [360, 313], [361, 474], [362, 360], [363, 488], [364, 409], [365, 372], [366, 373], [367, 366], [368, 370], [369, 368], [370, 369], [371, 367], [372, 371], [373, 365], [374, 375], [375, 377], [376, 374], [377, 376], [378, 381], [379, 378], [380, 379], [381, 380], [382, 383], [383, 384], [384, 382], [385, 393], [386, 387], [387, 388], [388, 386], [389, 390], [390, 385], [391, 389], [392, 391], [393, 392], [394, 395], [395, 396], [396, 400], [397, 311], [398, 399], [399, 406], [400, 394], [401, 314], [402, 473], [403, 364], [404, 405], [405, 397], [406, 398], [407, 408], [408, 292], [409, 414], [410, 411], [411, 456], [412, 457], [413, 461], [414, 413], [415, 416], [416, 295], [417, 466], [418, 417], [419, 458], [420, 423], [421, 420], [422, 421], [423, 422], [424, 427], [425, 424], [426, 425], [427, 426], [428, 429], [429, 430], [430, 428], [431, 433], [432, 431], [433, 434], [434, 432], [435, 437], [436, 435], [437, 436], [438, 441], [439, 438], [440, 439], [441, 440], [442, 444], [443, 442], [444, 445], [445, 443], [446, 447], [447, 448], [448, 446], [449, 451], [450, 449], [451, 450], [452, 410], [453, 469], [454, 455], [455, 453], [456, 415], [457, 452], [458, 459], [459, 462], [460, 412], [461, 460], [462, 464], [463, 465], [464, 463], [465, 418], [466, 454], [467, 475], [468, 467], [469, 468], [470, 472], [471, 470], [472, 404], [473, 471], [474, 402], [475, 476], [476, 296], [477, 480], [478, 477], [479, 489], [480, 481], [481, 494], [482, 357], [483, 285], [484, 483], [485, 419], [486, 485], [487, 490], [488, 359], [489, 478], [490, 479], [491, 338], [492, 495], [493, 492], [494, 341], [495, 498], [496, 491], [497, 506], [498, 339], [499, 493], [500, 499], [501, 353], [502, 501], [503, 500], [504, 287], [505, 504], [506, 509], [507, 352], [508, 507], [509, 213], [510, 211], [511, 252], [512, 253], [513, 207], [514, 247], [515, 516], [516, 519], [517, 518], [518, 225], [519, 517], [520, 208], [521, 209], [522, 265], [523, 264], [524, 261], [525, 514], [526, 525], [527, 539], [528, 540], [529, 559], [530, 536], [531, 538], [532, 534], [533, 529], [534, 535], [535, 531], [536, 546], [537, 269], [538, 532], [539, 528], [540, 527], [541, 542], [542, 547], [543, 257], [544, 187], [545, 563], [546, 530], [547, 541], [548, 545], [549, 568], [550, 574], [551, 548], [552, 184], [553, 552], [554, 556], [555, 554], [556, 571], [557, 594], [558, 591], [559, 564], [560, 551], [561, 562], [562, 560], [563, 553], [564, 533], [565, 573], [566, 576], [567, 566], [568, 586], [569, 570], [570, 572], [571, 580], [572, 565], [573, 549], [574, 558], [575, 567], [576, 577], [577, 584], [578, 579], [579, 583], [580, 575], [581, 569], [582, 581], [583, 578], [584, 282], [585, 588], [586, 585], [587, 605], [588, 133], [589, 587], [590, 597], [591, 593], [592, 595], [593, 589], [594, 596], [595, 561], [596, 557], [597, 599], [598, 604], [599, 590], [600, 598], [601, 146], [602, 603], [603, 601], [604, 164], [605, 607], [606, 582], [607, 606], [608, 156], [609, 619], [610, 630], [611, 627], [612, 610], [613, 611], [614, 617], [615, 614], [616, 629], [617, 660], [618, 636], [619, 631], [620, 634], [621, 622], [622, 616], [623, 624], [624, 632], [625, 666], [626, 657], [627, 658], [628, 625], [629, 613], [630, 154], [631, 155], [632, 615], [633, 628], [634, 633], [635, 161], [636, 620], [637, 618], [638, 639], [639, 642], [640, 638], [641, 645], [642, 644], [643, 641], [644, 651], [645, 643], [646, 647], [647, 652], [648, 117], [649, 121], [650, 118], [651, 646], [652, 650], [653, 661], [654, 612], [655, 674], [656, 626], [657, 656], [658, 655], [659, 623], [660, 664], [661, 621], [662, 659], [663, 662], [664, 653], [665, 663], [666, 675], [667, 679], [668, 676], [669, 683], [670, 681], [671, 680], [672, 682], [673, 654], [674, 677], [675, 33], [676, 35], [677, 667], [678, 665], [679, 669], [680, 668], [681, 672], [682, 673], [683, 31], [684, 41], [685, 44], [686, 93], [687, 688], [688, 92], [689, 27], [690, 95], [691, 21], [692, 696], [693, 722], [694, 698], [695, 691], [696, 720], [697, 692], [698, 710], [699, 16], [700, 708], [701, 4], [702, 697], [703, 10], [704, 713], [705, 715], [706, 707], [707, 718], [708, 7], [709, 8], [710, 701], [711, 702], [712, 711], [713, 705], [714, 1], [715, 716], [716, 6], [717, 706], [718, 719], [719, 699], [720, 703], [721, 693], [722, 721], [723, 714]]
A Solution was found
Objective value: 40863.4
Problem solved in 54034 iterations
Problem solved in 1190 nodes
Final Route Configuration succesfully created at:
data/routes/u724.csv
